
************************************************************
 TOWR - Trajectory Optimization for Walking Robots (v1.4)
                © Alexander W. Winkler
           https://github.com/ethz-adrl/towr
************************************************************

0.37800000000000006
-5.691090504386319e-63
0.24
0
0
0.24
0
0
0
0.21
0.19
0.0
0.21
-0.19
0.0
-0.21
0.19
0.0
-0.21
-0.19
0.0
0.01
ee start pos x -> 0.21
ee start pos y -> 0.19
ee start pos z -> 0
ee start pos x -> 0.21
ee start pos y -> -0.19
ee start pos z -> 0
ee start pos x -> -0.21
ee start pos y -> 0.19
ee start pos z -> 0
ee start pos x -> -0.21
ee start pos y -> -0.19
ee start pos z -> 0
start pos x -> 0
start pos y -> 0
start pos z -> 0.24
goal pos x -> 0.378
goal pos y -> -5.69109e-63
goal pos z -> 0.24
ee start pos x -> 0.21
ee start pos y -> 0.19
ee start pos z -> 0
ee start pos x -> 0.21
ee start pos y -> -0.19
ee start pos z -> 0
ee start pos x -> -0.21
ee start pos y -> 0.19
ee start pos z -> 0
ee start pos x -> -0.21
ee start pos y -> -0.19
ee start pos z -> 0
SOLVER RUN TIME : 15

******************************************************************************
This program contains Ipopt, a library for large-scale nonlinear optimization.
 Ipopt is released as open source code under the Eclipse Public License (EPL).
         For more information visit http://projects.coin-or.org/Ipopt
******************************************************************************

This is Ipopt version 3.11.9, running with linear solver mumps.
NOTE: Other linear solvers might be more efficient (see Ipopt documentation).

Number of nonzeros in equality constraint Jacobian...:    11557
Number of nonzeros in inequality constraint Jacobian.:    20605
Number of nonzeros in Lagrangian Hessian.............:        0

Total number of variables............................:     1005
                     variables with only lower bounds:        0
                variables with lower and upper bounds:        0
                     variables with only upper bounds:        0
Total number of equality constraints.................:      706
Total number of inequality constraints...............:     1024
        inequality constraints with only lower bounds:      112
   inequality constraints with lower and upper bounds:      816
        inequality constraints with only upper bounds:       96

iter    objective    inf_pr   inf_du lg(mu)  ||d||  lg(rg) alpha_du alpha_pr  ls
   0  0.0000000e+00 9.71e+00 1.00e+00   0.0 0.00e+00    -  0.00e+00 0.00e+00   0
   1  0.0000000e+00 9.11e+00 3.83e+01   0.3 6.05e+00    -  4.67e-01 6.13e-02f  1
   2  0.0000000e+00 4.04e+00 8.32e+01   0.5 8.34e+00    -  9.95e-01 5.57e-01f  1
   3  0.0000000e+00 1.07e-01 8.37e+01   0.1 3.70e+00    -  7.65e-01 1.00e+00f  1
   4  0.0000000e+00 7.08e-04 6.51e-01  -0.4 1.83e-01    -  1.00e+00 1.00e+00f  1
   5  0.0000000e+00 3.39e-07 3.09e-01  -6.4 3.44e-03    -  9.82e-01 1.00e+00h  1
   6  0.0000000e+00 2.23e-11 3.10e-03  -8.1 7.90e-04    -  9.90e-01 1.00e+00h  1
   7  0.0000000e+00 1.92e-06 8.04e-06  -6.2 5.79e-02    -  9.99e-01 1.00e+00h  1

Number of Iterations....: 7

                                   (scaled)                 (unscaled)
Objective...............:   0.0000000000000000e+00    0.0000000000000000e+00
Dual infeasibility......:   8.0377454539907276e-06    8.0377454539907276e-06
Constraint violation....:   1.9190191699602899e-06    1.9190191699602899e-06
Complementarity.........:   9.6232751610757885e-07    9.6232751610757885e-07
Overall NLP error.......:   8.0377454539907276e-06    8.0377454539907276e-06


Number of objective function evaluations             = 8
Number of objective gradient evaluations             = 8
Number of equality constraint evaluations            = 8
Number of inequality constraint evaluations          = 8
Number of equality constraint Jacobian evaluations   = 8
Number of inequality constraint Jacobian evaluations = 8
Number of Lagrangian Hessian evaluations             = 0
Total CPU secs in IPOPT (w/o function evaluations)   =      0.370
Total CPU secs in NLP function evaluations           =      0.527

EXIT: Optimal Solution Found.
status -> 0

************************************************************
    IFOPT - Interface to Nonlinear Optimizers (v2.0)
                © Alexander W. Winkler
           https://github.com/ethz-adrl/ifopt
************************************************************
Legend:
c - number of variables, constraints or cost terms
i - indices of this set in overall problem
v - number of [violated variable- or constraint-bounds] or [cost term value]

                                   c             i             v 
variable-sets:
   base-lin                       306        0....305[0m           0[0m
   base-ang                       306      306....611[0m           0[0m
   ee-motion_0                     35      612....646[0m           0[0m
   ee-motion_1                     35      647....681[0m           0[0m
   ee-motion_2                     35      682....716[0m           0[0m
   ee-motion_3                     35      717....751[0m           0[0m
   ee-force_0                      72      752....823[0m           0[0m
   ee-force_1                      72      824....895[0m           0[0m
   ee-force_2                      72      896....967[0m           0[0m
   ee-force_3                      72      968...1039[0m           0[0m

constraint-sets:
   terrain-ee-motion_0             13        0.....12[0m           0[0m
   terrain-ee-motion_1             13       13.....25[0m           0[0m
   terrain-ee-motion_2             13       26.....38[0m           0[0m
   terrain-ee-motion_3             13       39.....51[0m           0[0m
   dynamic                        312       52....363[0m           0[0m
   splineacc-base-lin             147      364....510[0m           0[0m
   splineacc-base-ang             147      511....657[0m           0[0m
   rangeofmotion-0                192      658....849[0m           0[0m
   rangeofmotion-1                192      850...1041[0m           0[0m
   rangeofmotion-2                192     1042...1233[0m           0[0m
   rangeofmotion-3                192     1234...1425[0m           0[0m
   force-ee-force_0                60     1426...1485[0m           0[0m
   force-ee-force_1                60     1486...1545[0m           0[0m
   force-ee-force_2                60     1546...1605[0m           0[0m
   force-ee-force_3                60     1606...1665[0m           0[0m
   swing-ee-motion_0               16     1666...1681[0m           0[0m
   swing-ee-motion_1               16     1682...1697[0m           0[0m
   swing-ee-motion_2               16     1698...1713[0m           0[0m
   swing-ee-motion_3               16     1714...1729[0m           0[0m

cost-terms:


************************************************************
 TOWR - Trajectory Optimization for Walking Robots (v1.4)
                © Alexander W. Winkler
           https://github.com/ethz-adrl/towr
************************************************************

0.6615000000000001
0.0
0.30070740698675796
0.219771
-0.0148517
0.254942
0.0121559
-0.158263
0.00789263
0.44739
0.153437
0.0607074
0.491325
-0.180494
0.0711059
0.0334279
0.170185
0
0.0645106
-0.179356
0
3.75
s_vel
0.0920931
0.01
-t
3.75
ee start pos x -> 0.44739
ee start pos y -> 0.153437
ee start pos z -> 0.0607074
ee start pos x -> 0.491325
ee start pos y -> -0.180494
ee start pos z -> 0.0711059
ee start pos x -> 0.0334279
ee start pos y -> 0.170185
ee start pos z -> 0
ee start pos x -> 0.0645106
ee start pos y -> -0.179356
ee start pos z -> 0
start pos x -> 0.219771
start pos y -> -0.0148517
start pos z -> 0.254942
goal pos x -> 0.6615
goal pos y -> 0
goal pos z -> 0.300707
ee start pos x -> 0.44739
ee start pos y -> 0.153437
ee start pos z -> 0.0607074
ee start pos x -> 0.491325
ee start pos y -> -0.180494
ee start pos z -> 0.0711059
ee start pos x -> 0.0334279
ee start pos y -> 0.170185
ee start pos z -> 0
ee start pos x -> 0.0645106
ee start pos y -> -0.179356
ee start pos z -> 0
SOLVER RUN TIME : 15

******************************************************************************
This program contains Ipopt, a library for large-scale nonlinear optimization.
 Ipopt is released as open source code under the Eclipse Public License (EPL).
         For more information visit http://projects.coin-or.org/Ipopt
******************************************************************************

This is Ipopt version 3.11.9, running with linear solver mumps.
NOTE: Other linear solvers might be more efficient (see Ipopt documentation).

Number of nonzeros in equality constraint Jacobian...:    11557
Number of nonzeros in inequality constraint Jacobian.:    20605
Number of nonzeros in Lagrangian Hessian.............:        0

Total number of variables............................:     1005
                     variables with only lower bounds:        0
                variables with lower and upper bounds:        0
                     variables with only upper bounds:        0
Total number of equality constraints.................:      706
Total number of inequality constraints...............:     1024
        inequality constraints with only lower bounds:      112
   inequality constraints with lower and upper bounds:      816
        inequality constraints with only upper bounds:       96

iter    objective    inf_pr   inf_du lg(mu)  ||d||  lg(rg) alpha_du alpha_pr  ls
   0  0.0000000e+00 9.71e+00 1.00e+00   0.0 0.00e+00    -  0.00e+00 0.00e+00   0
   1  0.0000000e+00 9.43e+00 7.02e+01   0.7 6.58e+00    -  6.82e-01 2.86e-02f  1
   2  0.0000000e+00 4.90e+00 1.16e+02   1.1 7.91e+00    -  9.71e-01 4.81e-01f  1
   3  0.0000000e+00 2.26e-01 2.10e+02   0.7 4.77e+00    -  7.23e-01 1.00e+00f  1
   4  0.0000000e+00 1.81e-03 5.00e+00   0.2 4.50e-01    -  9.98e-01 1.00e+00f  1
   5  0.0000000e+00 3.47e-04 5.17e-02  -1.4 2.03e-01    -  1.00e+00 1.00e+00h  1
   6  0.0000000e+00 3.47e-04 1.61e-02  -7.4 4.31e-04    -  9.90e-01 1.00e+00h  1
   7  0.0000000e+00 3.47e-04 1.60e-04  -9.4 2.39e-04    -  9.90e-01 1.00e+00h  1
   8  0.0000000e+00 3.47e-04 5.57e-08 -11.0 9.09e-04    -  1.00e+00 1.00e+00H  1
   9  0.0000000e+00 3.47e-04 2.78e-10 -11.0 5.90e-07  -4.0 1.00e+00 1.00e+00s 22
ERROR: Ipopt failed to find a solution. Return Code: -2
iter    objective    inf_pr   inf_du lg(mu)  ||d||  lg(rg) alpha_du alpha_pr  ls
  10r 0.0000000e+00 3.47e-04 9.99e+02  -3.5 0.00e+00  -4.5 0.00e+00 4.77e-07R 22
  11r 0.0000000e+00 3.47e-04 6.09e+00  -5.3 8.32e-05    -  1.00e+00 9.94e-01f  1
  12r 0.0000000e+00 3.47e-04 3.33e+01  -5.8 2.82e-03    -  1.00e+00 9.33e-01f  1
  13r 0.0000000e+00 3.47e-04 1.63e-06  -7.2 1.56e-03    -  1.00e+00 1.00e+00h  1
Restoration phase converged to a feasible point that is
unacceptable to the filter for the original problem.
Restoration phase in the restoration phase failed.

Number of Iterations....: 13

                                   (scaled)                 (unscaled)
Objective...............:   0.0000000000000000e+00    0.0000000000000000e+00
Dual infeasibility......:   4.0695422599265252e-08    4.0695422599265252e-08
Constraint violation....:   3.4695989525741766e-04    3.4695989525741766e-04
Complementarity.........:   1.6806845091514557e-09    1.6806845091514557e-09
Overall NLP error.......:   3.4695989525741766e-04    3.4695989525741766e-04


Number of objective function evaluations             = 61
Number of objective gradient evaluations             = 12
Number of equality constraint evaluations            = 61
Number of inequality constraint evaluations          = 61
Number of equality constraint Jacobian evaluations   = 16
Number of inequality constraint Jacobian evaluations = 16
Number of Lagrangian Hessian evaluations             = 0
Total CPU secs in IPOPT (w/o function evaluations)   =      0.675
Total CPU secs in NLP function evaluations           =      1.287

EXIT: Restoration Failed!
status -> -2

************************************************************
    IFOPT - Interface to Nonlinear Optimizers (v2.0)
                © Alexander W. Winkler
           https://github.com/ethz-adrl/ifopt
************************************************************
Legend:
c - number of variables, constraints or cost terms
i - indices of this set in overall problem
v - number of [violated variable- or constraint-bounds] or [cost term value]

                                   c             i             v 
variable-sets:
   base-lin                       306        0....305[0m           0[0m
   base-ang                       306      306....611[0m           0[0m
   ee-motion_0                     35      612....646[0m           0[0m
   ee-motion_1                     35      647....681[0m           0[0m
   ee-motion_2                     35      682....716[0m           0[0m
   ee-motion_3                     35      717....751[0m           0[0m
   ee-force_0                      72      752....823[0m           0[0m
   ee-force_1                      72      824....895[0m           0[0m
   ee-force_2                      72      896....967[0m           0[0m
   ee-force_3                      72      968...1039[0m           0[0m

constraint-sets:
   terrain-ee-motion_0             13        0.....12[0m           0[0m
   terrain-ee-motion_1             13       13.....25[0m           0[0m
   terrain-ee-motion_2             13       26.....38[0m           0[0m
   terrain-ee-motion_3             13       39.....51[0m           0[0m
   dynamic                        312       52....363[0m           0[0m
   splineacc-base-lin             147      364....510[0m           0[0m
   splineacc-base-ang             147      511....657[0m           0[0m
   rangeofmotion-0                192      658....849[0m           0[0m
   rangeofmotion-1                192      850...1041[0m           0[0m
   rangeofmotion-2                192     1042...1233[0m           0[0m
   rangeofmotion-3                192     1234...1425[0m           0[0m
   force-ee-force_0                60     1426...1485[0m           0[0m
   force-ee-force_1                60     1486...1545[0m           0[0m
   force-ee-force_2                60     1546...1605[0m           0[0m
   force-ee-force_3                60     1606...1665[0m           0[0m
   swing-ee-motion_0               16     1666...1681[0m           0[0m
   swing-ee-motion_1               16     1682...1697[0m           0[0m
   swing-ee-motion_2               16     1698...1713[0m           0[0m
   swing-ee-motion_3               16     1714...1729[0m           0[0m

cost-terms:


************************************************************
 TOWR - Trajectory Optimization for Walking Robots (v1.4)
                © Alexander W. Winkler
           https://github.com/ethz-adrl/towr
************************************************************

0.8505756
0.0
0.30070740698675796
0.398248
0.0229818
0.273963
-0.038091
-0.148254
0.0410714
0.623095
0.169283
0.0607074
0.650366
-0.180867
0.118463
0.210503
0.174128
0
0.243853
-0.172791
0
6.272
s_vel
0.10442
0.01
-t
6.272
ee start pos x -> 0.623095
ee start pos y -> 0.169283
ee start pos z -> 0.0607074
ee start pos x -> 0.650366
ee start pos y -> -0.180867
ee start pos z -> 0.118463
ee start pos x -> 0.210503
ee start pos y -> 0.174128
ee start pos z -> 0
ee start pos x -> 0.243853
ee start pos y -> -0.172791
ee start pos z -> 0
start pos x -> 0.398248
start pos y -> 0.0229818
start pos z -> 0.273963
goal pos x -> 0.850576
goal pos y -> 0
goal pos z -> 0.300707
ee start pos x -> 0.623095
ee start pos y -> 0.169283
ee start pos z -> 0.0607074
ee start pos x -> 0.650366
ee start pos y -> -0.180867
ee start pos z -> 0.118463
ee start pos x -> 0.210503
ee start pos y -> 0.174128
ee start pos z -> 0
ee start pos x -> 0.243853
ee start pos y -> -0.172791
ee start pos z -> 0
SOLVER RUN TIME : 15

******************************************************************************
This program contains Ipopt, a library for large-scale nonlinear optimization.
 Ipopt is released as open source code under the Eclipse Public License (EPL).
         For more information visit http://projects.coin-or.org/Ipopt
******************************************************************************

This is Ipopt version 3.11.9, running with linear solver mumps.
NOTE: Other linear solvers might be more efficient (see Ipopt documentation).

Number of nonzeros in equality constraint Jacobian...:    11557
Number of nonzeros in inequality constraint Jacobian.:    20605
Number of nonzeros in Lagrangian Hessian.............:        0

Total number of variables............................:     1005
                     variables with only lower bounds:        0
                variables with lower and upper bounds:        0
                     variables with only upper bounds:        0
Total number of equality constraints.................:      706
Total number of inequality constraints...............:     1024
        inequality constraints with only lower bounds:      112
   inequality constraints with lower and upper bounds:      816
        inequality constraints with only upper bounds:       96

iter    objective    inf_pr   inf_du lg(mu)  ||d||  lg(rg) alpha_du alpha_pr  ls
   0  0.0000000e+00 9.71e+00 1.00e+00   0.0 0.00e+00    -  0.00e+00 0.00e+00   0
   1  0.0000000e+00 9.42e+00 6.97e+01   0.6 8.89e+00    -  6.34e-01 2.96e-02f  1
   2  0.0000000e+00 4.38e+00 1.56e+02   1.0 7.87e+00    -  9.89e-01 5.35e-01f  1
   3  0.0000000e+00 1.06e-01 1.65e+02   0.6 3.45e+00    -  6.83e-01 1.00e+00f  1
   4  0.0000000e+00 1.87e-02 9.18e+00   0.4 5.53e-01    -  9.85e-01 1.00e+00f  1
   5  0.0000000e+00 7.24e-03 4.25e+00  -0.3 2.28e+00    -  1.00e+00 1.00e+00f  1
   6  0.0000000e+00 7.24e-03 4.00e-01  -1.7 1.68e-01    -  9.84e-01 1.00e+00h  1
   7  0.0000000e+00 7.24e-03 1.07e-02  -3.4 1.45e-02    -  9.94e-01 1.00e+00h  1
   8  0.0000000e+00 7.24e-03 1.87e-04  -5.4 1.87e-04    -  9.99e-01 1.00e+00h  1
   9  0.0000000e+00 7.24e-03 5.66e-07  -7.4 4.98e-04    -  9.98e-01 1.00e+00h  1
iter    objective    inf_pr   inf_du lg(mu)  ||d||  lg(rg) alpha_du alpha_pr  ls
  10  0.0000000e+00 7.24e-03 4.31e-09  -9.4 7.26e-05    -  1.00e+00 1.00e+00h  1
  11  0.0000000e+00 7.24e-03 5.54e-10 -11.0 5.55e-06  -4.0 1.00e+00 1.00e+00h  1
  12  0.0000000e+00 7.24e-03 4.65e-11 -11.0 1.39e-06  -4.5 1.00e+00 1.00e+00h  1
  13  0.0000000e+00 7.24e-03 4.43e-11 -11.0 3.99e-06  -5.0 1.00e+00 1.00e+00h  1
  14  0.0000000e+00 7.24e-03 4.44e-11 -11.0 1.20e-05  -5.4 1.00e+00 1.00e+00H  1
  15  0.0000000e+00 7.24e-03 4.44e-11 -11.0 3.59e-05  -5.9 1.00e+00 6.25e-02h  5
  16r 0.0000000e+00 7.24e-03 9.99e+02  -2.1 0.00e+00  -5.5 0.00e+00 4.77e-07R 22
  17r 0.0000000e+00 7.24e-03 1.29e-03  -4.0 1.31e-03    -  1.00e+00 1.00e+00f  1
  18r 0.0000000e+00 7.24e-03 1.09e+00  -9.0 2.04e-04    -  9.97e-01 9.66e-01f  1
  19r 0.0000000e+00 7.24e-03 3.78e-06  -6.5 1.06e-02    -  1.00e+00 1.00e+00f  1
iter    objective    inf_pr   inf_du lg(mu)  ||d||  lg(rg) alpha_du alpha_pr  ls
  20r 0.0000000e+00 7.24e-03 2.22e-01  -8.3 5.80e-03    -  9.74e-01 1.00e+00h  1
  21r 0.0000000e+00 7.24e-03 2.77e-07  -8.8 2.99e-03    -  1.00e+00 1.00e+00h  1
  22r 0.0000000e+00 7.24e-03 5.21e-08  -9.0 9.94e-04    -  1.00e+00 1.00e+00h  1
  23r 0.0000000e+00 7.24e-03 1.42e-08  -9.0 2.04e-03    -  1.00e+00 1.00e+00h  1
  24r 0.0000000e+00 7.24e-03 2.13e-08  -9.0 9.48e-04    -  1.00e+00 1.00e+00h  1
  25r 0.0000000e+00 7.24e-03 2.15e-09  -9.0 4.69e-04    -  1.00e+00 1.00e+00h  1

Number of Iterations....: 25

                                   (scaled)                 (unscaled)
Objective...............:   0.0000000000000000e+00    0.0000000000000000e+00
Dual infeasibility......:   1.2867904516711704e-08    1.2867904516711704e-08
Constraint violation....:   7.2426750764510439e-03    7.2426750764510439e-03
Complementarity.........:   1.0000000000000001e-09    1.0000000000000001e-09
Overall NLP error.......:   7.2426750764510439e-03    7.2426750764510439e-03


Number of objective function evaluations             = 56
Number of objective gradient evaluations             = 18
Number of equality constraint evaluations            = 56
Number of inequality constraint evaluations          = 56
Number of equality constraint Jacobian evaluations   = 28
Number of inequality constraint Jacobian evaluations = 28
Number of Lagrangian Hessian evaluations             = 0
Total CPU secs in IPOPT (w/o function evaluations)   =      1.134
Total CPU secs in NLP function evaluations           =      2.060

EXIT: Converged to a point of local infeasibility. Problem may be infeasible.
status -> 2

************************************************************
    IFOPT - Interface to Nonlinear Optimizers (v2.0)
                © Alexander W. Winkler
           https://github.com/ethz-adrl/ifopt
************************************************************
Legend:
c - number of variables, constraints or cost terms
i - indices of this set in overall problem
v - number of [violated variable- or constraint-bounds] or [cost term value]

                                   c             i             v 
variable-sets:
   base-lin                       306        0....305[0m           0[0m
   base-ang                       306      306....611[0m           0[0m
   ee-motion_0                     35      612....646[0m           0[0m
   ee-motion_1                     35      647....681[0m           0[0m
   ee-motion_2                     35      682....716[0m           0[0m
   ee-motion_3                     35      717....751[0m           0[0m
   ee-force_0                      72      752....823[0m           0[0m
   ee-force_1                      72      824....895[0m           0[0m
   ee-force_2                      72      896....967[0m           0[0m
   ee-force_3                      72      968...1039[0m           0[0m

constraint-sets:
   terrain-ee-motion_0             13        0.....12[0m           0[0m
   terrain-ee-motion_1             13       13.....25[31m           1[0m
   terrain-ee-motion_2             13       26.....38[0m           0[0m
   terrain-ee-motion_3             13       39.....51[0m           0[0m
ERROR: Ipopt failed to find a solution. Return Code: 2
   dynamic                        312       52....363[0m           0[0m
   splineacc-base-lin             147      364....510[0m           0[0m
   splineacc-base-ang             147      511....657[0m           0[0m
   rangeofmotion-0                192      658....849[0m           0[0m
   rangeofmotion-1                192      850...1041[0m           0[0m
   rangeofmotion-2                192     1042...1233[0m           0[0m
   rangeofmotion-3                192     1234...1425[0m           0[0m
   force-ee-force_0                60     1426...1485[0m           0[0m
   force-ee-force_1                60     1486...1545[0m           0[0m
   force-ee-force_2                60     1546...1605[0m           0[0m
   force-ee-force_3                60     1606...1665[0m           0[0m
   swing-ee-motion_0               16     1666...1681[0m           0[0m
   swing-ee-motion_1               16     1682...1697[0m           0[0m
   swing-ee-motion_2               16     1698...1713[0m           0[0m
   swing-ee-motion_3               16     1714...1729[0m           0[0m

cost-terms:

